words_hard_train/8381.qaiger
aag 118 23 0 1 95
2
4
12
16
18
38
46
54
64
72
74
100
102
122
134
136
156
168
170
190
200
204
206
237
6 3 5
8 2 4
10 7 9
14 11 13
20 17 19
22 16 18
24 21 23
26 9 25
28 8 24
30 27 29
32 15 30
34 14 31
36 33 35
40 10 38
42 41 15
44 11 39
48 46 12
50 45 48
52 42 51
56 53 54
58 36 57
60 52 55
62 59 61
66 62 64
68 63 65
70 29 23
76 73 75
78 72 74
80 77 79
82 70 81
84 71 80
86 83 85
88 35 86
90 34 87
92 89 91
94 69 93
96 67 95
98 85 79
104 101 103
106 100 102
108 105 107
110 98 109
112 99 108
114 111 113
116 91 114
118 90 115
120 117 119
124 120 123
126 97 125
128 121 122
130 127 129
132 113 107
138 135 137
140 134 136
142 139 141
144 132 143
146 133 142
148 145 147
150 119 148
152 118 149
154 151 153
158 155 156
160 130 159
162 154 157
164 161 163
166 147 141
172 169 171
174 168 170
176 173 175
178 166 177
180 167 176
182 179 181
184 153 182
186 152 183
188 185 187
192 188 191
194 164 193
196 189 190
198 195 197
202 198 200
208 204 207
210 205 206
212 209 211
214 181 175
216 212 214
218 213 215
220 217 219
222 220 186
224 203 223
226 199 201
228 221 187
230 227 229
232 224 231
234 202 222
236 233 235
i0 1 x1[1]
i1 1 x2[0]
i2 1 x1[0]
i3 1 x1[2]
i4 1 x2[1]
i5 2 y2[1]
i6 2 y2[0]
i7 2 y2[2]
i8 2 y2[3]
i9 1 x1[3]
i10 1 x2[2]
i11 1 x1[4]
i12 1 x2[3]
i13 2 y2[4]
i14 1 x1[5]
i15 1 x2[4]
i16 2 y2[5]
i17 1 x1[6]
i18 1 x2[5]
i19 2 y2[6]
i20 2 y2[7]
i21 1 x2[6]
i22 1 x1[7]
o0 bv[0]
c
simplified
  <
    invert
      2 y2
    add
      add
        1 x2
        1 x2
      1 x1
