words_hard_train/8381.qaiger.qdimacs
p cnf 118 286
a 1 2 67 36 37 6 68 8 9 102 103 50 51 84 85 0
e 3 4 5 7 10 11 12 13 14 15 16 17 18 19 20 21 22 23 24 25 26 27 28 29 30 31 32 33 34 35 38 39 40 41 42 43 44 45 46 47 48 49 52 53 54 55 56 57 58 59 60 61 62 63 64 65 66 69 70 71 72 73 74 75 76 77 78 79 80 81 82 83 86 87 88 89 90 91 92 93 94 95 96 97 98 99 100 101 104 105 106 107 108 109 110 111 112 113 114 115 116 117 118 0
1 2 3 0
-1 -3 0
-2 -3 0
-1 -2 4 0
1 -4 0
2 -4 0
3 4 5 0
-3 -5 0
-4 -5 0
5 6 7 0
-5 -7 0
-6 -7 0
8 9 10 0
-8 -10 0
-9 -10 0
-8 -9 11 0
8 -11 0
9 -11 0
10 11 12 0
-10 -12 0
-11 -12 0
4 12 13 0
-4 -13 0
-12 -13 0
-4 -12 14 0
4 -14 0
12 -14 0
13 14 15 0
-13 -15 0
-14 -15 0
7 -15 16 0
-7 -16 0
15 -16 0
-7 15 17 0
7 -17 0
-15 -17 0
16 17 18 0
-16 -18 0
-17 -18 0
-5 -19 20 0
5 -20 0
19 -20 0
20 7 21 0
-20 -21 0
-7 -21 0
5 19 22 0
-5 -22 0
-19 -22 0
-23 -6 24 0
23 -24 0
6 -24 0
22 -24 25 0
-22 -25 0
24 -25 0
-21 25 26 0
21 -26 0
-25 -26 0
26 -27 28 0
-26 -28 0
27 -28 0
-18 28 29 0
18 -29 0
-28 -29 0
-26 27 30 0
26 -30 0
-27 -30 0
29 30 31 0
-29 -31 0
-30 -31 0
-31 -32 33 0
31 -33 0
32 -33 0
31 32 34 0
-31 -34 0
-32 -34 0
14 11 35 0
-14 -35 0
-11 -35 0
36 37 38 0
-36 -38 0
-37 -38 0
-36 -37 39 0
36 -39 0
37 -39 0
38 39 40 0
-38 -40 0
-39 -40 0
-35 40 41 0
35 -41 0
-40 -41 0
35 -40 42 0
-35 -42 0
40 -42 0
41 42 43 0
-41 -43 0
-42 -43 0
17 -43 44 0
-17 -44 0
43 -44 0
-17 43 45 0
17 -45 0
-43 -45 0
44 45 46 0
-44 -46 0
-45 -46 0
34 46 47 0
-34 -47 0
-46 -47 0
33 47 48 0
-33 -48 0
-47 -48 0
42 39 49 0
-42 -49 0
-39 -49 0
50 51 52 0
-50 -52 0
-51 -52 0
-50 -51 53 0
50 -53 0
51 -53 0
52 53 54 0
-52 -54 0
-53 -54 0
-49 54 55 0
49 -55 0
-54 -55 0
49 -54 56 0
-49 -56 0
54 -56 0
55 56 57 0
-55 -57 0
-56 -57 0
45 -57 58 0
-45 -58 0
57 -58 0
-45 57 59 0
45 -59 0
-57 -59 0
58 59 60 0
-58 -60 0
-59 -60 0
-60 61 62 0
60 -62 0
-61 -62 0
48 62 63 0
-48 -63 0
-62 -63 0
60 -61 64 0
-60 -64 0
61 -64 0
63 64 65 0
-63 -65 0
-64 -65 0
56 53 66 0
-56 -66 0
-53 -66 0
67 68 69 0
-67 -69 0
-68 -69 0
-67 -68 70 0
67 -70 0
68 -70 0
69 70 71 0
-69 -71 0
-70 -71 0
-66 71 72 0
66 -72 0
-71 -72 0
66 -71 73 0
-66 -73 0
71 -73 0
72 73 74 0
-72 -74 0
-73 -74 0
59 -74 75 0
-59 -75 0
74 -75 0
-59 74 76 0
59 -76 0
-74 -76 0
75 76 77 0
-75 -77 0
-76 -77 0
77 -78 79 0
-77 -79 0
78 -79 0
-65 79 80 0
65 -80 0
-79 -80 0
-77 78 81 0
77 -81 0
-78 -81 0
80 81 82 0
-80 -82 0
-81 -82 0
73 70 83 0
-73 -83 0
-70 -83 0
84 85 86 0
-84 -86 0
-85 -86 0
-84 -85 87 0
84 -87 0
85 -87 0
86 87 88 0
-86 -88 0
-87 -88 0
-83 88 89 0
83 -89 0
-88 -89 0
83 -88 90 0
-83 -90 0
88 -90 0
89 90 91 0
-89 -91 0
-90 -91 0
76 -91 92 0
-76 -92 0
91 -92 0
-76 91 93 0
76 -93 0
-91 -93 0
92 93 94 0
-92 -94 0
-93 -94 0
-94 95 96 0
94 -96 0
-95 -96 0
-82 96 97 0
82 -97 0
-96 -97 0
94 -95 98 0
-94 -98 0
95 -98 0
97 98 99 0
-97 -99 0
-98 -99 0
-99 -100 101 0
99 -101 0
100 -101 0
-102 103 104 0
102 -104 0
-103 -104 0
102 -103 105 0
-102 -105 0
103 -105 0
104 105 106 0
-104 -106 0
-105 -106 0
90 87 107 0
-90 -107 0
-87 -107 0
-106 -107 108 0
106 -108 0
107 -108 0
106 107 109 0
-106 -109 0
-107 -109 0
108 109 110 0
-108 -110 0
-109 -110 0
-110 -93 111 0
110 -111 0
93 -111 0
101 111 112 0
-101 -112 0
-111 -112 0
99 100 113 0
-99 -113 0
-100 -113 0
110 93 114 0
-110 -114 0
-93 -114 0
113 114 115 0
-113 -115 0
-114 -115 0
-112 115 116 0
112 -116 0
-115 -116 0
-101 -111 117 0
101 -117 0
111 -117 0
116 117 118 0
-116 -118 0
-117 -118 0
-118 0
